Tried aggregator 1 time.
MIP Presolve eliminated 996 rows and 856 columns.
MIP Presolve modified 72976 coefficients.
Reduced MIP has 948 rows, 944 columns, and 50941 nonzeros.
Reduced MIP has 944 binaries, 0 generals, 0 SOSs, and 0 indicators.
Presolve time = 0,39 sec. (434,70 ticks)
Found incumbent of value 161,000000 after 0,57 sec. (595,74 ticks)
Probing time = 0,01 sec. (7,37 ticks)
Tried aggregator 1 time.
MIP Presolve eliminated 80 rows and 0 columns.
MIP Presolve modified 4535 coefficients.
Reduced MIP has 868 rows, 944 columns, and 48356 nonzeros.
Reduced MIP has 944 binaries, 0 generals, 0 SOSs, and 0 indicators.
Presolve time = 0,17 sec. (154,71 ticks)
Probing time = 0,01 sec. (6,57 ticks)
Clique table members: 5894.
MIP emphasis: balance optimality and feasibility.
MIP search method: dynamic search.
Parallel mode: deterministic, using up to 8 threads.
Root relaxation solution time = 0,01 sec. (7,59 ticks)

        Nodes                                         Cuts/
   Node  Left     Objective  IInf  Best Integer    Best Bound    ItCnt     Gap

*     0+    0                          161,0000        0,0000           100,00%
*     0+    0                          130,0000        0,0000           100,00%
*     0+    0                          103,0000        0,0000           100,00%
*     0+    0                           99,0000        0,0000           100,00%
*     0+    0                           85,0000        0,0000           100,00%
      0     0       71,6009    37       85,0000       71,6009       93   15,76%
*     0+    0                           80,0000       71,6009            10,50%
*     0+    0                           77,0000       71,6009             7,01%
      0     0       76,0000    19       77,0000     Cuts: 163      162    1,30%
      0     0        cutoff             77,0000                    187    0,00%
Elapsed time = 1,00 sec. (866,13 ticks, tree = 0,01 MB, solutions = 7)

GUB cover cuts applied:  16
Clique cuts applied:  15
Cover cuts applied:  3
Implied bound cuts applied:  9
Mixed integer rounding cuts applied:  10
Zero-half cuts applied:  2
Lift and project cuts applied:  1
Gomory fractional cuts applied:  3

Root node processing (before b&c):
  Real time             =    1,00 sec. (866,41 ticks)
Parallel b&c, 8 threads:
  Real time             =    0,00 sec. (0,00 ticks)
  Sync time (average)   =    0,00 sec.
  Wait time (average)   =    0,00 sec.
                          ------------
Total (root+branch&cut) =    1,00 sec. (866,41 ticks)

